CMD:
./solvers/bin/cadical --plain --no-reduce -t 1600 ./data/cnfs//6s122/6s122.30.cnf

c --- [ banner ] -------------------------------------------------------------
c 
c CaDiCaL SAT Solver
c Copyright (c) 2016-2024
c A. Biere, M. Fleury, N. Froleyks, K. Fazekas, F. Pollitt, T. Faller
c JKU Linz, University of Freiburg, TU Wien
c 
c Version 2.1.3 5296d3d2a9bf48c154ab2acb5e44625776d821bf
c g++ (Gentoo 12.3.1_p20230526 p2) 12.3.1 20230526 -Wall -Wextra -O3 -DNDEBUG
c Sat Aug 9 07:26:21 PDT 2025 Linux cedar2.int.cedar.computecanada.ca 5.14.0-362.24.2.el9_3.x86_64 x86_64
c 
c --- [ limit ] --------------------------------------------------------------
c 
c setting time limit to 1600 seconds real time (due to '-t 1600')
c 
c --- [ parsing input ] ------------------------------------------------------
c 
c reading DIMACS file from './data/cnfs//6s122/6s122.30.cnf'
c opening file to read './data/cnfs//6s122/6s122.30.cnf'
c found 'p cnf 94112 278438' header
c parsed 278438 clauses in 0.05 seconds process time
c 
c --- [ options ] ------------------------------------------------------------
c 
c   --compact=false                (different from default 'true')
c   --decompose=false              (different from default 'true')
c   --deduplicate=false            (different from default 'true')
c   --elim=false                   (different from default 'true')
c   --probe=false                  (different from default 'true')
c   --reduce=false                 (different from default 'true')
c   --subsume=false                (different from default 'true')
c   --ternary=false                (different from default 'true')
c   --transred=false               (different from default 'true')
c   --vivify=false                 (different from default 'true')
c 
c --- [ solving ] ------------------------------------------------------------
c 
c time measured in process time since initialization
c 
c  seconds  reductions  redundant  irredundant
c         MB    restarts       trail       variables
c          level   conflicts       glue         remaining
c 
c *  0.05 36  0 0   0    0    0  0% 0 171632 29753 32%
c {  0.05 37  0 0   0    0    0  0% 0 171632 29753 32%
c i  0.06 37 27 0   0   36   33 74% 2 171632 29752 32%
c i  0.06 37 31 0   0   50   46 75% 2 171632 29713 32%
c i  0.06 37 32 0   0   53   48 75% 2 171632 29708 32%
c i  0.06 37 32 0   0   54   48 75% 2 171632 29703 32%
c i  0.06 37 32 0   0   56   48 75% 2 171632 29674 32%
c i  0.06 37 86 0   1   84   75 78% 2 171632 29664 32%
c i  0.06 37 82 0   1   88   78 77% 2 171632 29655 32%
c i  0.06 37 80 0   1   91   80 77% 2 171632 29646 32%
c i  0.06 37 75 0   1   99   86 76% 2 171632 29503 31%
c i  0.07 37 65 0   4  123  104 76% 2 171632 28868 31%
c i  0.07 37 64 0   5  126  106 76% 2 171632 28080 30%
c i  0.07 37 54 0  16  165  144 75% 2 171632 28079 30%
c i  0.08 37 49 0  28  207  181 75% 2 171632 28065 30%
c i  0.08 37 48 0  29  210  183 75% 2 171632 28059 30%
c i  0.08 37 40 0  51  302  270 74% 3 171632 28058 30%
c i  0.08 37 40 0  51  303  270 74% 3 171632 28034 30%
c i  0.09 37 38 0  55  321  284 74% 3 171632 27614 29%
c i  0.09 37 37 0  63  351  311 75% 3 171632 27593 29%
c 
c  seconds  reductions  redundant  irredundant
c         MB    restarts       trail       variables
c          level   conflicts       glue         remaining
c 
c i  0.09 37 36 0  63  355  314 75% 3 171632 27142 29%
c i  0.09 37 36 0  63  356  314 75% 3 171632 27105 29%
c i  0.11 37 33 0 104  530  473 75% 3 171632 26964 29%
c i  0.11 37 33 0 105  535  477 75% 3 171632 26960 29%
c i  0.11 37 33 0 105  538  479 75% 3 171632 26857 29%
c i  0.13 37 31 0 133  717  646 76% 3 171632 26849 29%
c i  0.13 37 31 0 133  718  646 76% 3 171632 26845 29%
c i  0.13 37 31 0 146  761  687 76% 3 171632 26842 29%
c i  0.13 37 31 0 146  762  687 76% 3 171632 26798 28%
c i  0.14 37 31 0 156  816  736 76% 3 171632 26732 28%
c i  0.14 37 31 0 156  817  736 76% 3 171632 26723 28%
c i  0.14 37 30 0 158  871  786 76% 3 171632 26480 28%
c i  0.14 37 30 0 158  877  791 76% 3 171632 26054 28%
c i  0.15 37 29 0 170  946  859 76% 3 171632 25801 27%
c i  0.16 37 29 0 176  968  880 76% 3 171632 25581 27%
c i  0.16 37 28 0 180  997  896 76% 3 171632 25575 27%
c i  0.16 37 28 0 181  998  896 76% 3 171632 25458 27%
c i  0.16 37 28 0 181 1001  898 76% 3 171632 25373 27%
c F  0.16 37 28 0 181 1002  898 76% 3 171632 25373 27%
c i  0.16 37 28 0 181 1002  898 76% 3 171632 25372 27%
c 
c  seconds  reductions  redundant  irredundant
c         MB    restarts       trail       variables
c          level   conflicts       glue         remaining
c 
c }  0.16 37 28 0 181 1002  898 76% 3 171632 25372 27%
c [  0.16 37  0 0 181 1002  898  0% 0 171632 25372 27%
c i  0.17 37 50 0 181 1012  906 76% 1 171632 24967 27%
c i  0.17 37 22 0 181 1027  912 77% 2 171632 24874 26%
c i  0.17 37 17 0 181 1040  922 77% 2 171632 24004 26%
c i  0.19 37 22 0 181 1218 1080 80% 7 171632 23871 25%
c i  0.19 37 22 0 181 1219 1080 80% 7 171632 23501 25%
c i  0.19 37 22 0 181 1228 1088 80% 7 171632 23499 25%
c i  0.20 37 22 0 181 1245 1103 80% 7 171632 23457 25%
c i  0.20 37 22 0 181 1247 1104 80% 7 171632 23413 25%
c i  0.20 37 23 0 181 1308 1158 80% 7 171632 23400 25%
c i  0.20 37 23 0 181 1309 1158 80% 7 171632 23396 25%
c i  0.20 38 23 0 181 1353 1198 80% 8 171632 23285 25%
c i  0.21 38 23 0 181 1374 1215 80% 8 171632 23282 25%
c i  0.21 38 22 0 181 1495 1301 80% 8 171632 23158 25%
c i  0.21 38 22 0 181 1496 1301 80% 8 171632 23156 25%
c i  0.22 38 22 0 181 1520 1322 80% 8 171632 23152 25%
c i  0.22 38 20 0 181 1591 1385 79% 7 171632 23142 25%
c i  0.22 38 20 0 181 1600 1390 79% 7 171632 22857 24%
c i  0.22 38 19 0 181 1606 1394 79% 7 171632 22051 23%
c 
c  seconds  reductions  redundant  irredundant
c         MB    restarts       trail       variables
c          level   conflicts       glue         remaining
c 
c ]  0.22 38 19 0 181 1611 1397 79% 7 171632 21677 23%
c 0  0.22 38 19 0 181 1611 1397 79% 7 171632 21677 23%
c 
c --- [ result ] -------------------------------------------------------------
c 
s UNSATISFIABLE
c 
c --- [ run-time profiling ] -------------------------------------------------
c 
c process time taken by individual solving procedures
c (percentage relative to process time for solving)
c 
c         0.17   99.94% search
c         0.11   62.52% unstable
c         0.06   34.64% stable
c         0.05   28.33% parse
c         0.00    2.77% lucky
c         0.00    0.00% simplify
c   =================================
c         0.17   77.79% solve
c 
c last line shows process time for solving
c (percentage relative to total process time)
c 
c --- [ statistics ] ---------------------------------------------------------
c 
c chronological:               748        46.43 %  of conflicts
c conflicts:                  1611      9335.29    per second
c decisions:                  8389     48611.88    per second
c fixed:                     72435        76.97 %  of all variables
c learned:                    1534        95.22 %  per conflict
c learned_lits:              24289       100.00 %  learned literals
c minimized:                     0         0.00 %  learned literals
c shrunken:                   4401        18.12 %  learned literals
c minishrunken:               2992        12.32 %  learned literals
c otfs:                          7         0.43 %  of conflict
c propagations:            2382734        13.81 M  per second
c rephased:                      1      1611.00    interval
c restarts:                    181         8.90    interval
c stabilizing:                   1        37.80 %  of conflicts
c subsumed:                     81         0.05 %  of all clauses
c strengthened:                  7         0.00 %  of all clauses
c 
c seconds are measured in process time for solving
c 
c --- [ resources ] ----------------------------------------------------------
c 
c total process time since initialization:         0.22    seconds
c total real time since initialization:            0.23    seconds
c maximum resident set size of process:           36.24    MB
c 
c --- [ shutting down ] ------------------------------------------------------
c 
c exit 20
